
  32    1
  10

   0   0   3 2 3 4 
   4   4   3 18 6 5 
   9   9   6 18 15 11 10 9 7 
   4   5   5 18 15 10 9 6 
  10  10   7 17 15 14 13 11 10 9 
   2   7   3 14 12 8 
   3   8   3 14 12 8 
   9   7   2 17 13 
  10  10   2 19 12 
   3  10   2 19 12 
  10   8   2 19 12 
   4  10   2 21 16 
   5   7   2 21 16 
   3   6   3 24 22 19 
   3   6   1 16 
   1  10   3 24 22 20 
   4   8   2 24 19 
   3  10   2 22 19 
   7  10   1 20 
   6   9   3 26 25 23 
   6   9   1 22 
   1   5   2 26 23 
  10   7   4 31 30 29 27 
   5   8   4 31 30 29 28 
   8  10   3 30 29 28 
   2   7   2 29 28 
   1  10   1 28 
   8  10   1 32
   1   9   1 32
   4   5   1 32
   9   6   1 32
   0   0   0 
